language Essence 1.3

letting bot_end be [28, 612, 574, 603, 546, 593, 613, 11, 124, 4, 111, 12, 138, 630, 636; int(1..15)]
letting bot_start be [431, 209, 2, 158, 119, 68, 35, 472, 558, 513, 588, 488, 556, 243, 245; int(1..15)]
letting buffer_col be 2
letting buffer_row be 2
letting corridor_size be 1
letting n_shelves_col be 1
letting n_shelves_row be 44
letting shelf_col_size be 2
letting shelf_row_size be 1
